c turning on binary mode checking
c parsing input formula with 202048 variables and 780970 clauses
c finished parsing, read 44345008 bytes from proof file
c detected empty clause; start verification via backward checking
c 94449 of 780970 clauses in core                            
c 198927 of 817552 lemmas in core using 3919972 resolution steps
c 0 RAT lemmas in core; 43965 redundant literals in core lemmas
s VERIFIED
c verification time: 15.856 seconds
